0 396
496 346
992 314
1488 286
1984 254
2480 240
2976 232
3472 224
3968 214
4464 206
4960 198
5456 190
5952 186
6448 180
6944 178
7440 176
7936 172
36208 168
41168 166
41664 164
42160 160
45136 156
45632 152
46128 150
